unknown
(model
; cardinality of BoundSet is 1
(declare-sort BoundSet 0)
(declare-fun groundTerm_1 () BoundSet)
; cardinality of UnboundSet is 1
(declare-sort UnboundSet 0)
(declare-fun groundTerm_2 () UnboundSet)
(define-fun IsInLake ((BOUND_VARIABLE_322 BoundSet)) Bool false)
(define-fun canoe ((BOUND_VARIABLE_322 BoundSet)) Bool false)
(define-fun IsGoesOverWaterfall ((BOUND_VARIABLE_322 BoundSet)) Bool false)
)
sat
(model
; cardinality of BoundSet is 1
(declare-sort BoundSet 0)
; rep: @uc_BoundSet_0
; cardinality of UnboundSet is 1
(declare-sort UnboundSet 0)
(declare-fun groundTerm_4 () UnboundSet)
(define-fun IsInLake ((BOUND_VARIABLE_340 BoundSet)) Bool false)
(define-fun canoe ((BOUND_VARIABLE_340 BoundSet)) Bool false)
(define-fun IsGoesOverWaterfall ((BOUND_VARIABLE_340 BoundSet)) Bool false)
)
